HUN,8,6,871
4,97,5,3,0,69,1,84,3,64,2,73
5,11,1,71,3,23,2,84,0,32,4,76
1,76,4,60,3,76,0,7,2,38,5,82
3,9,2,71,1,23,5,25,0,62,4,33
4,43,5,42,3,3,0,94,1,52,2,69
5,70,0,64,3,83,4,99,1,70,2,32
2,41,1,45,5,86,0,39,4,73,3,6
0,96,1,25,4,40,3,82,5,66,2,47
